unknown
(model
; cardinality of BoundSet is 2
(declare-sort BoundSet 0)
; rep: @uc_BoundSet_0
; rep: @uc_BoundSet_1
(declare-sort UnboundSet 0)
(define-fun IsTakingPictures ((BOUND_VARIABLE_373 BoundSet)) Bool true)
(define-fun IsInGroup ((BOUND_VARIABLE_373 BoundSet)) Bool true)
(define-fun IsInCrowd ((BOUND_VARIABLE_373 BoundSet)) Bool false)
)
